$ https://www.innoludic.com/2015-04-30-13-56-29/thermometers/56-rules-of-thermometers.html

letting x be 6
letting y be 6
letting step be 10
letting thermcount be 9


letting therms be [
    [  5,  4,  3,  2,  1, 11],
    [ 25, 24, 23, 22, 21, 12],
    [ 35, 34, 33, 32, 31, 13],
    [ 45, 44, 43, 42, 41, 14],
    [ 53, 52, 51, 61, 62, 63],
    [ 72, 71, 84, 83, 82, 81]
]

letting rowsums be [4,1,5,5,3,2]
letting colsums be [1,3,4,3,4,5]